c Random CNF formula
p cnf 40 20
30 4 21 0
39 28 4 0
-39 -37 -16 0
-13 -36 17 0
26 9 -25 0
16 -3 8 0
9 30 -14 0
-21 -37 16 0
26 35 -7 0
-26 -33 36 0
5 -12 -1 0
-12 9 -27 0
-38 -15 9 0
-21 -16 2 0
18 -10 -23 0
-8 -31 33 0
39 -20 -5 0
-14 -9 -33 0
-23 -27 33 0
-30 -8 27 0